17	4	3
20	15	18	13	41	42	10	
0	0	0	0	0	2	3	9	2	7	6	3	2	3	4
10	6	0	10	0	8	2	4	6	7	6	3	5	10	17
8	10	0	0	1	8	4	9	8	5	5	2	8	17
5	6	0	0	2	6	10	7	7	2	10	3	6	7	10
10	0	0	6	4	8	4	5	3	2	10	3	9	12	17
100	0	4	7	7	3	4	3	1	5	9	1	17
50	5	0	8	0	6	3	10	10	8	6	2	11	17
75	0	0	2	0	5	6	10	4	3	4	2	13	17
150	0	0	0	3	8	9	4	5	6	6	3	11	14	17
50	8	0	0	6	5	3	9	9	6	1	3	13	15	17
150	0	6	2	0	9	8	5	1	8	10	2	17	17
175	6	0	10	0	10	4	2	9	4	10	2	16	17
3	6	6	9	0	5	8	5	4	1	8	1	17
6	0	6	0	0	8	9	6	2	4	1	2	17	17
9	0	7	0	4	7	8	4	6	7	10	1	17
4	0	0	10	1	7	6	7	1	7	5	1	17
0	0	0	0	0	10	6	8	2	5	1	0
